\ This file has been generated by DOcplex
\ ENCODING=ISO-8859-1
\Problem name: linear_programing_AGV

Minimize
 obj: 0.333333333333 t_out_0_s1 + 0.333333333333 t_out_1_s2
Subject To
 c1: - t_in_0_s1 + t_out_0_s0 <= -6
 c2: - t_in_1_s2 + t_out_1_s1 <= -6
 c3: - t_in_1_s1 + t_out_0_s1 - 10 y_1_0_s1 <= 0
 c4: - t_in_0_s1 + t_out_1_s1 - 10 y_0_1_s1 <= 0
 c5: t_in_0_s0 - t_out_0_s0 <= -2
 c6: t_in_0_s1 - t_out_0_s1 <= -2
 c7: t_in_1_s1 - t_out_1_s1 <= -2
 c8: t_in_1_s2 - t_out_1_s2 <= -2
 c9: y_0_1_s1 + y_1_0_s1 = 1

Bounds
       t_in_0_s0 <= 3
 8 <= t_in_0_s1 <= 11
 7 <= t_in_1_s1 <= 10
 15 <= t_in_1_s2 <= 18
 2 <= t_out_0_s0 <= 5
 10 <= t_out_0_s1 <= 13
 9 <= t_out_1_s1 <= 12
 17 <= t_out_1_s2 <= 20
 0 <= y_0_1_s1 <= 1
 0 <= y_1_0_s1 <= 1

Binaries
 y_0_1_s1 y_1_0_s1

Generals
 t_in_0_s0 t_in_0_s1 t_in_1_s1 t_in_1_s2 t_out_0_s0 t_out_0_s1 t_out_1_s1
 t_out_1_s2
End
